(set-logic QF_S)
(set-option :strings-exp true)
(set-option :produce-models true)
(declare-fun sigmaStar_0 () String)
(declare-fun literal_1 () String)
(declare-fun x_3 () String)
(declare-fun literal_2 () String)
(declare-fun x_4 () String)
(declare-fun x_6 () String)
(declare-fun literal_5 () String)
(assert (= literal_1 "\x2f"))
(assert (= x_3 (str.++ sigmaStar_0 literal_1)))
(assert (= literal_2 "\x73\x65\x6e\x64\x63\x61\x72\x64\x2f"))
(assert (= x_4 (str.++ x_3 literal_2)))
(assert (= literal_5 ""))
(assert (or (= x_6 x_4) (= x_6 literal_5)))
(assert (str.in.re x_6 (re.++ (re.* re.allchar) (re.++ (str.to.re "\x5c\x3c\x53\x43\x52\x49\x50\x54") (re.* re.allchar)))))
(check-sat)
(get-model)
